&input
  fildyn = '_ph0/c.dyn',
  zasr   = 'simple',
  flfrc  = 'c_qe.frc'
/
