&inputpp
  prefix     = "n",
  outdir     = "./"
  plot_num   = 7,
  filplot    = "wfc",
  kpoint(1)  = 1,
  kpoint(2)  = 1,
  kband(1)   = 100,
  kband(2)   = 120,
/
&plot
  iflag         = 3,
  output_format = 6,
  fileout       = ".cube"
/
