&inputpp
  prefix     = "b",
  outdir     = "./"
  plot_num   = 7,
  filplot    = "wfc",
  kpoint(1)  = 1,
  ! kpoint(2)  = 1,
  kband(1)   = 495,
  kband(2)   = 505,
/
&plot
  iflag         = 3,
  output_format = 6,
  fileout       = ".cube"
/
