# Diamond
# Compute PPM G0W0 band structure of diamond on 4x4x4 grid.
# Dataset 1: ground state calculation to get the density
# Dataset 2: calculation of the screening (epsilon^-1 matrix for W) with Hybersten-Louie plasmon pole model
# Dataset 3: calculation of the Self-Energy matrix elements (GW corrections) with Hybersten-Louie plasmon pole model

ndtset      3

############
# Dataset 1
############
# SCF-GS run
     nband1 105
    nbdbuf1 5
    tolvrs1 1.0e-20
      iscf1 12
usepotzero1 2

############
# Dataset 2
############
# Calculation of the screening (epsilon^-1 matrix)
optdriver2  3        # Screening calculation
gwcalctyp2  0        # gw with plasmon-pole model
  ecuteps2  7.5      # Cut-off energy of the planewave set to represent the dielectric matrix.
                     # It is important to adjust this parameter.
   getwfk2 -1        # Obtain WFK file from previous dataset
    nband2  100      # Bands to be used in the screening calculation
  ppmodel2  2        # Hybersten-Louie PPM
  ppmfrq2   1 Ry
## parameters related to full-frequency calculations, not used here
# freqremax2  3 Ry
#   nfreqre2  32
# # nfreqim3
# cd_customnimfrqs2 5
# # in Hartree
# cd_imfrqs2  0.32923695 0.77525513 1.42882543 2.52520175 5.

############
# Dataset 3
############
# Calculation of the Self-Energy matrix elements (GW corrections)
optdriver3   4        # Self-Energy calculation
gwcalctyp3   0
   getwfk3  -2        # Obtain WFK file from dataset 1
   getscr3  -1        # Obtain SCR file from previous dataset
    nband3   100      # Bands to be used in the Self-Energy calculation
 ecutsigx3   30.0    # Dimension of the G sum in Sigma_x.
                     # (the dimension in Sigma_c is controlled by ecuteps)
  ecuteps3   7.5
  ppmodel3   2        # Hybersten-Louie PPM
   ppmfrq3   1 Ry
#  # spectral function
#   nfreqsp4    200
# freqspmax4    2.0 Ry


# Definition of the unit cell: fcc
acell  3*3.5473 angstrom
rprim  0.0  0.5  0.5   # FCC primitive vectors (to be scaled by acell)
       0.5  0.0  0.5
       0.5  0.5  0.0

# Definition of the atom types
ntypat  1         # There is only one type of atom
znucl   6         # The keyword "znucl" refers to the atomic number of the
                  # possible type(s) of atom. The pseudopotential(s)
                  # mentioned in the "files" file must correspond
                  # to the type(s) of atom. Here, the only type is carbon.

# Definition of the atoms
natom  2          # There are two atoms
typat  1 1        # They both are of type 1, that is, carbon
xred              # Reduced coordinate of atoms
      0.0  0.0  0.0
      0.25 0.25 0.25


# Definition of the k-point grid
ngkpt   4 4 4       # k-point sampling
nshiftk 1
shiftk  0.0 0.0 0.0  # These shifts will be the same for all grids
istwfk  *1           # This is mandatory in all the GW steps.

# Definition of the planewave basis set (at convergence 16 Rydberg 8 Hartree)
ecut    30.0         # Maximal kinetic energy cut-off, in Hartree

# coulomb divergence
# icutcoul 0 # spherical
icutcoul 7 # Gygi-Baldereschi
# icutcoul 6 # Carrier-Rohra-Gorling, PHYSICAL REVIEW B 75, 205126 2007

# Definition of the SCF procedure
nstep   200        # Maximal number of SCF cycles
#toldfe  1.0d-6    # Will stop when this tolerance is achieved on total energy
diemac  6.0        # Although this is not mandatory, it is worth to
                   # precondition the SCF cycle. The model dielectric
                   # function used as the standard preconditioner
                   # is described in the "dielng" input variable section.
                   # Here, we follow the prescription for bulk diamond.
                   #
                   #

 # k points for gw calculations
gw_qprange3 -4
